#Generated by Multiwfn (http://sobereva.com/multiwfn)
&GLOBAL
  PROJECT MD
  PRINT_LEVEL LOW
  RUN_TYPE MD
&END GLOBAL

&FORCE_EVAL
  METHOD Quickstep
  &SUBSYS
    &CELL
      A    15.37838911     0.00000000     0.00000000
      B     0.00000000    10.74120948     0.00000000
      C     0.00000000     0.00000000    14.77832472
      PERIODIC XYZ #Direction(s) of applied PBC (geometry aspect)
    &END CELL
    &COORD
      Fe          1.99965412    2.70290367    1.80804201
      Li          5.90646690    2.72046824    1.89177923
      Li          1.97961765    8.10910206    1.87997455
      Fe          0.00038517   -0.00536780    0.00316298
      Fe          3.84615038    5.50556421   -0.00485079
      Cl          1.76241503   -0.05674537    1.80011692
      Cl          5.42515687    5.55704442    1.88299864
      Cl          5.90238209    0.09597460    2.22752368
      Cl          2.11896365    5.47104460    1.94253179
      Cl          0.06539101    2.43044368    0.06048797
      Cl          3.71791875    7.89980267    0.03622908
      Cl          0.04533318    8.34861014    0.01363017
      Cl          4.10014178    3.02587060    0.01196048
      Li          5.69930028    8.09907024    5.50310316
      Li          5.90647123    2.86164684    5.57744978
      Li          1.90030815    8.03167190    5.51383125
      Fe         -0.00343461   -0.08477585    3.69715186
      Fe          3.84724421    5.41282154    3.69766163
      Cl          1.68369643   10.71253957    5.40896999
      Cl          5.61136705    5.50529877    5.47423188
      Cl          5.99335277   10.78129563    5.67601638
      Cl          2.23619227    5.29505795    5.45203090
      Cl         -0.07512461    2.34588739    3.64241123
      Cl          3.73722228    7.83566559    3.76942240
      Cl          0.10443899    8.31152558    3.62043642
      Cl          4.18329149    3.02560713    3.70210574
      Fe          9.44284422    2.71170815    1.80252554
      Li         13.37933961    2.72348146    1.95727938
      Li          9.95052797    8.04005501    1.71757410
      Fe          7.69194044   -0.08413067   -0.00639707
      Fe         11.53398190    5.33071536   -0.00876889
      Cl          9.51315317   -0.26926620    2.19851084
      Cl         13.30245431    5.38020023    2.18544961
      Cl         13.76406586    0.01282514    1.78447952
      Cl          9.55829540    5.36712055    2.44817809
      Cl          7.73690875    3.32605283    0.37364275
      Cl         11.43613188    8.14605404   -0.20159317
      Cl          7.79791749    8.31775828   -0.05830252
      Cl         11.95805836    2.89077414   -0.06644398
      Li         13.38261028    8.07292614    5.74312436
      Li         13.45711112    2.55919959    5.53427041
      Li          9.56827977    8.04666366    5.59042007
      Fe          7.69132194   -0.01168033    3.69461146
      Fe         11.53683088    5.39910614    3.69844124
      Cl          9.32842687   10.74880655    5.64811823
      Cl         13.21357076    5.44593540    5.66417171
      Cl         13.53979224   10.62544613    5.24784811
      Cl          9.87090075    5.34019537    5.72638729
      Cl          7.75537121    2.42568718    3.80552794
      Cl         11.43795231    7.76921514    3.83241414
      Cl          7.62570793    8.34913843    3.92552816
      Cl         11.72370460    3.00931231    3.89922017
      Fe          1.92536020    2.69719738    9.28138121
      Li          5.68554233    2.60497675    9.19816710
      Li          1.26690031    7.88997822    9.24177025
      Fe         -0.00129873   -0.07470666    7.37912964
      Fe          3.84795698    5.41912571    7.39107641
      Cl          1.73876285   -0.30499659    9.48862831
      Cl          5.53265079    5.41725720    9.08979503
      Cl          6.08159279   -0.09069552    9.18810141
      Cl          2.01132430    5.46784133    8.98003192
      Cl         14.98747176    2.51064657    7.34558552
      Cl          3.79905796    7.76761982    7.25311760
      Cl          0.06469364    7.99663455    7.15011229
      Cl          4.06553585    3.03717059    7.26653199
      Li          5.77466310    8.04741150   12.82302471
      Li          5.21211822    2.25580750   12.70141221
      Li          1.84206228    8.02624250   13.02995881
      Fe         15.37678882   10.74029171   11.08424524
      Fe          3.84713395    5.49190309   11.08340407
      Cl          1.64740774   -0.01687539   12.98295845
      Cl          5.61670113    5.60386141   13.17919100
      Cl          5.84525983   -0.20987146   12.78100398
      Cl          2.02334795    5.42224486   13.34427118
      Cl         15.42057786    2.45669813   11.16321433
      Cl          3.68590706    7.81342519   11.19368834
      Cl         -0.05596688    8.28440234   11.30147717
      Cl          3.77820076    2.16924751   10.73745850
      Fe          9.61506472    2.70916757    9.35644026
      Li         13.50099644    2.64117946    9.26626914
      Li          9.66174292    8.08540309    9.23494554
      Fe          7.68816720   -0.08070633    7.39170213
      Fe         11.53034367    5.34181698    7.39364756
      Cl          9.42247065   -0.05369393    9.21824404
      Cl         13.15496224    5.43911363    9.17441784
      Cl         13.52667601    0.07829345    9.73061814
      Cl          9.81007990    5.47468745    9.21632418
      Cl          7.63720790    2.41020125    7.51408158
      Cl         11.42606859    7.82438261    7.35503760
      Cl          7.77625270    8.29553410    7.40720895
      Cl         11.51264958    2.92818302    7.52304039
      Li         13.37709261    8.13056769   13.06016586
      Li         13.60650972    2.85869991   12.94658168
      Li          9.68669386    8.13931372   12.88005239
      Fe          7.68656928   10.73423051   11.08848785
      Fe         11.53451590    5.49244243   11.09005098
      Cl          9.39100219    0.04469514   12.71392174
      Cl         13.29848956    5.53691773   12.84176596
      Cl         13.71451000    0.05963487   13.05726492
      Cl          9.82110566    5.39863617   12.66986420
      Cl          7.28965689    2.34917911   11.20593842
      Cl         11.49393589    7.85554560   11.03663837
      Cl          7.78327483    8.32204573   11.10155355
      Cl         11.79845575    3.06873477   11.08564278
    &END COORD
#   &VELOCITY #You can set initial atomic velocities in this section
#   &END VELOCITY
    &KIND Li
      ELEMENT Li
      BASIS_SET DZVP-MOLOPT-SR-GTH-q3
      POTENTIAL GTH-PBE
    &END KIND
    &KIND Cl
      ELEMENT Cl
      BASIS_SET DZVP-MOLOPT-SR-GTH-q7
      POTENTIAL GTH-PBE
    &END KIND
    &KIND Fe
      ELEMENT Fe
      BASIS_SET DZVP-MOLOPT-SR-GTH-q16
      POTENTIAL GTH-PBE
      MAGNETIZATION  5.00
    &END KIND
  &END SUBSYS

  &DFT
    BASIS_SET_FILE_NAME  BASIS_MOLOPT
    POTENTIAL_FILE_NAME  POTENTIAL
#   WFN_RESTART_FILE_NAME MD-RESTART.wfn
    CHARGE    0 #Net charge
    MULTIPLICITY  101 #Spin multiplicity
    UKS
    &QS
      EPS_DEFAULT 1.0E-10 #Set all EPS_xxx to values such that the energy will be correct up to this value
      EXTRAPOLATION ASPC #Extrapolation for wavefunction during e.g. MD. ASPC is default, PS can also be used
      EXTRAPOLATION_ORDER 3 #Order for PS or ASPC extrapolation. 3 is default
    &END QS
    &POISSON
      PERIODIC XYZ #Direction(s) of PBC for calculating electrostatics
      PSOLVER PERIODIC #The way to solve Poisson equation
    &END POISSON
    &XC
      &XC_FUNCTIONAL PBE
      &END XC_FUNCTIONAL
      &VDW_POTENTIAL
        POTENTIAL_TYPE PAIR_POTENTIAL
        &PAIR_POTENTIAL
          PARAMETER_FILE_NAME dftd3.dat
          TYPE DFTD3(BJ)
          REFERENCE_FUNCTIONAL PBE
          #CALCULATE_C9_TERM T #Calculate C9-related three-body term, more accurate for large system
        &END PAIR_POTENTIAL
      &END VDW_POTENTIAL
    &END XC
    &MGRID
      CUTOFF  300
      REL_CUTOFF  40
    &END MGRID
    &SCF
      MAX_SCF 25 #Maximum number of steps of inner SCF
      EPS_SCF 1.0E-05 #Convergence threshold of density matrix of inner SCF
#     SCF_GUESS RESTART #Use wavefunction from WFN_RESTART_FILE_NAME file as initial guess
#     IGNORE_CONVERGENCE_FAILURE #Continue calculation even if SCF not converged, works for version >= 2024.1
      &OT
        PRECONDITIONER FULL_ALL #Usually best but expensive for large system. Cheaper: FULL_SINGLE_INVERSE and FULL_KINETIC
        MINIMIZER DIIS #CG is worth to consider in difficult cases
        LINESEARCH 2PNT #1D line search algorithm for CG. 2PNT is default. 3PNT is more expensive but may be better. GOLD is best but very expensive
        ALGORITHM IRAC #Algorithm of OT. Can be STRICT (default) or IRAC
      &END OT
      &OUTER_SCF
        MAX_SCF 20 #Maximum number of steps of outer SCF
        EPS_SCF 1.0E-05 #Convergence threshold of outer SCF
      &END OUTER_SCF
      &PRINT
        &RESTART OFF #Do not generate wfn file to suppress meaningless I/O cost
        &END RESTART
      &END PRINT
    &END SCF
  &END DFT
&END FORCE_EVAL

&MOTION
  &MD
    ENSEMBLE NVT
    STEPS 10000 #Number of steps to run
    TIMESTEP 1.0 #Step size in fs. Decrease it properly for high temperature simulation
    TEMPERATURE 600 #Initial and maintained temperature (K)
#   COMVEL_TOL 0 #Uncomment this can remove translation motion of center-of-mass every step
    &THERMOSTAT
      TYPE CSVR
      &CSVR
        TIMECON 100 #Time constant in fs. Smaller/larger results in stronger/weaker temperature coupling
      &END CSVR
    &END THERMOSTAT
    &PRINT
      &PROGRAM_RUN_INFO
        &EACH
          MD     1 #Output frequency of MD information, 0 means never
        &END EACH
      &END PROGRAM_RUN_INFO
    &END PRINT
  &END MD
  &PRINT
    &TRAJECTORY
      &EACH
        MD   1 #Output frequency of coordinates, 0 means never
      &END EACH
      FORMAT xyz
    &END TRAJECTORY
    &VELOCITIES
      &EACH
        MD     0 #Output frequency of velocities, 0 means never
      &END EACH
    &END VELOCITIES
    &FORCES
      &EACH
        MD     0 #Output frequency of forces, 0 means never
      &END EACH
    &END FORCES
    &RESTART
      BACKUP_COPIES 0 #Maximum number of backing up restart file, 0 means never
      &EACH
        MD  1 #Frequency of updating last restart file, 0 means never
      &END EACH
    &END RESTART
    &RESTART_HISTORY OFF 
    &END RESTART_HISTORY
  &END PRINT
&END MOTION
