#Generated by Multiwfn (http://sobereva.com/multiwfn)
&GLOBAL
  PROJECT 700
  PRINT_LEVEL LOW
  RUN_TYPE MD
&END GLOBAL

&FORCE_EVAL
  METHOD Quickstep
  &SUBSYS
    &CELL
      A    15.37838911     0.00000000     0.00000000
      B     0.00000000    10.74120948     0.00000000
      C     0.00000000     0.00000000    14.77832472
      PERIODIC XYZ #Direction(s) of applied PBC (geometry aspect)
    &END CELL
    &COORD
      	 Fe         1.3185603574       -0.0442745625        1.3634144709
 	 Li         7.1217932731        2.3893651580        2.4519395171
	 Li         1.5811201887        6.7368189044        1.8232024970
	 Fe        -0.8666695519       -1.2470395773        0.0970425986
	 Fe         2.5871236247        3.8588350667        0.3749951623
	 Cl         2.8580535630       -1.5092856833        2.0403319507
	 Cl         4.7807420280        3.9926039742        1.9355157585
	 Cl         5.8363244936       -1.2080484780        3.0970363886
	 Cl         1.0941064014        4.3820852622        1.9940197756
	 Cl        -0.4549635951        1.7044486066        0.2471107094
	 Cl         3.0560605538        5.9986080038       -0.0779179019
	 Cl        -0.5282121793        7.0918107232        0.0786726968
	 Cl         2.8135339224        1.5120511485        0.3717561327
	 Li         5.5113478110        7.3715408778        3.7420417810
	 Li         5.9902229980        1.6041554537        5.7703823856
	 Li         1.9363398838        6.1212914704        5.7421202174
	 Fe         0.4941834129       -0.9879519850        5.1959947213
	 Fe         4.0060548448        3.8550485486        4.0312929745
	 Cl         2.4794581694        9.8681670975        6.2211375318
	 Cl         5.4543279048        4.4404492214        5.6150674200
	 Cl         6.1484866823        9.8812556046        6.4501765870
	 Cl         2.1488408161        3.6037905010        5.1903912310
	 Cl         0.9596912769        0.7066603912        3.5605715284
	 Cl         3.4221446539        6.3028083234        3.5520976758
	 Cl         0.0029265059        7.8067786748        3.6884048963
	 Cl         4.4456541431        1.5906713779        4.1659992414
	 Fe         9.0170340455        3.4219805573       -0.0675371836
	 Li        13.7989877573        1.5172799521        2.6349088515
	 Li         8.9908527512        7.1678566827        1.9939291652
	 Fe         6.4892891906       -1.4012829511        0.5590574284
	 Fe        11.2859748985        4.3928020947       -0.0280989309
	 Cl         9.4568963710       -0.9063581863        2.6664511091
	 Cl        12.9685774038        4.0856112086        1.3204944536
	 Cl        12.8128517654       -1.0152773088        1.6185728618
	 Cl         8.5994212580        4.4619456732        1.9678651242
	 Cl         6.6438773412        1.1908707267        0.5690797890
	 Cl        10.6566237841        6.9143635404        0.0351576664
	 Cl         6.5594289507        6.9806820405        0.9824118091
	 Cl        11.0099578045        1.9289657171       -0.2634187317
	 Li        13.2647549185        8.5782756313        4.8627003007
	 Li        11.3538378116        0.8073027277        4.5364448271
	 Li         9.8553052299        7.0475908214        6.2423539874
	 Fe         7.9769715897       -1.0035171113        4.3081168207
	 Fe        11.7445807982        4.5345640035        4.5352838280
	 Cl        10.1332614431        9.8699996201        5.6281261857
	 Cl        13.9530330377        4.0088819239        4.3203519140
	 Cl        13.5291617047       10.9703043287        4.8642320637
	 Cl         9.4267231483        4.7071758773        5.7412961553
	 Cl         7.8538596622        1.3912031720        4.4894419345
	 Cl        11.6819843238        6.6760484130        3.5015783900
	 Cl         8.1185494169        7.3959804914        4.5320461963
	 Cl        10.9226885907        2.7144657295        3.4429936889
	 Fe         1.8479065790        2.7003240177       10.5544566497
	 Li         5.4319679486        1.1137447205        9.4658660942
	 Li         1.7560322299        6.9562541140        9.2324556211
	 Fe         0.0417698250       -0.7263791805        7.6912127907
	 Fe         3.7020164335        4.3237739935        8.4092317768
	 Cl         1.6879303676       -1.0187107151        9.4671888253
	 Cl         5.8615906247        4.8095527601        9.4107232431
	 Cl         5.3350544806       -1.1976135716        9.6464510082
	 Cl         1.2271238217        3.9124327171        8.7540513954
	 Cl        15.2500134265        1.4413204989        7.4758711209
	 Cl         3.7366608947        6.3705767717        7.2954313177
	 Cl         0.3102900516        7.1750497330        7.2728692062
	 Cl         3.7138194574        2.1831120447        7.5897255438
	 Li         6.8695206336        5.9810827766       13.6344797105
	 Li         6.9790361019        2.3599143723       13.0745347603
	 Li         1.1085947266        6.6136696726       12.8770781155
	 Fe        15.4016109383        9.5755859746       11.2843223465
	 Fe         4.0836370918        4.6652928463       10.9203756027
	 Cl         1.6094402981       -1.3374828708       12.7402689632
	 Cl         5.4401166406        4.1025769280       12.9130266974
	 Cl         4.6847840195       -1.3315814905       13.8746488298
	 Cl         1.0109030066        4.0547034579       13.3595175221
	 Cl        15.1800167937        1.6333354699       11.1792902286
	 Cl         3.0458710100        6.4897715527       11.2986062499
	 Cl        -0.3084939065        7.0848716896       11.2193893173
	 Cl         3.5505507923        1.3830487745       10.9913911995
	 Fe         8.8321971693        2.4158275898        9.4051470729
	 Li        13.6659220143        1.9926442068        9.6380540014
	 Li        13.5940609710        6.8187785675        8.5765041288
	 Fe         7.1875686307       -1.5527969622        8.3501846158
	 Fe        11.3026693498        3.8900016677        7.0594696941
	 Cl         9.1215682860       -0.6739505070        9.1292721970
	 Cl        13.3432168952        4.2291404984        9.0301560778
	 Cl        13.8226112345       -0.8295625377        9.6124870909
	 Cl        10.1818837595        4.9116758116        8.7652380256
	 Cl         7.1723496631        2.1312499031        8.1667990959
	 Cl        12.1416335109        7.3809216856        6.5869084814
	 Cl         7.7730405371        7.1801802726        8.0823140588
	 Cl        10.3265530352        1.8410476527        7.6537925042
	 Li        12.6239696704        6.5909294452       15.9493985858
	 Li        13.0571102383        1.8270427459       13.1734577209
	 Li         9.8455019403        7.6955551637       11.6742248447
	 Fe         7.6304418766        9.5124397277       13.0636827955
	 Fe        11.5145812762        4.6520577940       10.8945762726
	 Cl         9.8176211771       -0.8880091137       12.7600329488
	 Cl        12.9823467901        4.6920744708       12.9520121043
	 Cl        13.4669526221       -0.8635884919       12.8532918540
	 Cl         9.6163203858        5.1905948804       12.0210793120
	 Cl         7.0301847380        0.5459631897       11.7246479927
	 Cl        12.0387328379        6.9662982183       10.5427851658
	 Cl         7.5035240619        7.3216409899       12.0626738929
	 Cl        11.5710660754        2.3328127367       11.2462823012
    &END COORD
#   &VELOCITY #You can set initial atomic velocities in this section
#   &END VELOCITY
    &KIND Li
      ELEMENT Li
      BASIS_SET DZVP-MOLOPT-SR-GTH-q3
      POTENTIAL GTH-PBE
    &END KIND
    &KIND Cl
      ELEMENT Cl
      BASIS_SET DZVP-MOLOPT-SR-GTH-q7
      POTENTIAL GTH-PBE
    &END KIND
    &KIND Fe
      ELEMENT Fe
      BASIS_SET DZVP-MOLOPT-SR-GTH-q16
      POTENTIAL GTH-PBE
      MAGNETIZATION  5.00
    &END KIND
  &END SUBSYS

  &DFT
    BASIS_SET_FILE_NAME  BASIS_MOLOPT
    POTENTIAL_FILE_NAME  POTENTIAL
#   WFN_RESTART_FILE_NAME MD-RESTART.wfn
    CHARGE    0 #Net charge
    MULTIPLICITY  101 #Spin multiplicity
    UKS
    &QS
      EPS_DEFAULT 1.0E-10 #Set all EPS_xxx to values such that the energy will be correct up to this value
      EXTRAPOLATION ASPC #Extrapolation for wavefunction during e.g. MD. ASPC is default, PS can also be used
      EXTRAPOLATION_ORDER 3 #Order for PS or ASPC extrapolation. 3 is default
    &END QS
    &POISSON
      PERIODIC XYZ #Direction(s) of PBC for calculating electrostatics
      PSOLVER PERIODIC #The way to solve Poisson equation
    &END POISSON
    &XC
      &XC_FUNCTIONAL PBE
      &END XC_FUNCTIONAL
      &VDW_POTENTIAL
        POTENTIAL_TYPE PAIR_POTENTIAL
        &PAIR_POTENTIAL
          PARAMETER_FILE_NAME dftd3.dat
          TYPE DFTD3(BJ)
          REFERENCE_FUNCTIONAL PBE
          #CALCULATE_C9_TERM T #Calculate C9-related three-body term, more accurate for large system
        &END PAIR_POTENTIAL
      &END VDW_POTENTIAL
    &END XC
    &MGRID
      CUTOFF  300
      REL_CUTOFF  40
    &END MGRID
    &SCF
      MAX_SCF 25 #Maximum number of steps of inner SCF
      EPS_SCF 1.0E-05 #Convergence threshold of density matrix of inner SCF
#     SCF_GUESS RESTART #Use wavefunction from WFN_RESTART_FILE_NAME file as initial guess
#     IGNORE_CONVERGENCE_FAILURE #Continue calculation even if SCF not converged, works for version >= 2024.1
      &OT
        PRECONDITIONER FULL_ALL #Usually best but expensive for large system. Cheaper: FULL_SINGLE_INVERSE and FULL_KINETIC
        MINIMIZER DIIS #CG is worth to consider in difficult cases
        LINESEARCH 2PNT #1D line search algorithm for CG. 2PNT is default. 3PNT is more expensive but may be better. GOLD is best but very expensive
        ALGORITHM IRAC #Algorithm of OT. Can be STRICT (default) or IRAC
      &END OT
      &OUTER_SCF
        MAX_SCF 20 #Maximum number of steps of outer SCF
        EPS_SCF 1.0E-05 #Convergence threshold of outer SCF
      &END OUTER_SCF
      &PRINT
        &RESTART OFF #Do not generate wfn file to suppress meaningless I/O cost
        &END RESTART
      &END PRINT
    &END SCF
  &END DFT
&END FORCE_EVAL

&MOTION
  &MD
    ENSEMBLE NVT
    STEPS 10000 #Number of steps to run
    TIMESTEP 1.0 #Step size in fs. Decrease it properly for high temperature simulation
    TEMPERATURE 700 #Initial and maintained temperature (K)
#   COMVEL_TOL 0 #Uncomment this can remove translation motion of center-of-mass every step
    &THERMOSTAT
      TYPE CSVR
      &CSVR
        TIMECON 100 #Time constant in fs. Smaller/larger results in stronger/weaker temperature coupling
      &END CSVR
    &END THERMOSTAT
    &PRINT
      &PROGRAM_RUN_INFO
        &EACH
          MD     1 #Output frequency of MD information, 0 means never
        &END EACH
      &END PROGRAM_RUN_INFO
    &END PRINT
  &END MD
  &PRINT
    &TRAJECTORY
      &EACH
        MD   1 #Output frequency of coordinates, 0 means never
      &END EACH
      FORMAT xyz
    &END TRAJECTORY
    &VELOCITIES
      &EACH
        MD     0 #Output frequency of velocities, 0 means never
      &END EACH
    &END VELOCITIES
    &FORCES
      &EACH
        MD     0 #Output frequency of forces, 0 means never
      &END EACH
    &END FORCES
    &RESTART
      BACKUP_COPIES 0 #Maximum number of backing up restart file, 0 means never
      &EACH
        MD  1 #Frequency of updating last restart file, 0 means never
      &END EACH
    &END RESTART
    &RESTART_HISTORY OFF 
    &END RESTART_HISTORY
  &END PRINT
&END MOTION
