#Generated by Multiwfn (http://sobereva.com/multiwfn)
&GLOBAL
  PROJECT opt_su
  PRINT_LEVEL LOW
  RUN_TYPE CELL_OPT
&END GLOBAL

&FORCE_EVAL
  METHOD Quickstep
  &SUBSYS
    &CELL
      A    14.55620000     0.00000000     0.00000000
      B     0.00000000    10.30810000     0.00000000
      C     0.00000000     0.00000000    14.44520000
      PERIODIC XYZ #Direction(s) of applied PBC (geometry aspect)
    &END CELL
    &COORD
      Fe          1.81952500    2.57702500    1.80565000
      Li          5.45857500    2.57702500    1.80565000
      Li          1.81952500    7.73107500    1.80565000
      Fe          0.00000000    0.00000000    0.00000000
      Fe          3.63905000    5.15405000    0.00000000
      Cl          1.67905767    0.00000000    1.80565000
      Cl          5.31810767    5.15405000    1.80565000
      Cl          5.59904233    0.00000000    1.80565000
      Cl          1.95999233    5.15405000    1.80565000
      Cl          0.00000000    2.50589911    0.00000000
      Cl          3.63905000    7.65994911    0.00000000
      Cl          0.00000000    7.80220089    0.00000000
      Cl          3.63905000    2.64815089    0.00000000
      Li          5.45857500    7.73107500    5.41695000
      Li          5.45857500    2.57702500    5.41695000
      Li          1.81952500    7.73107500    5.41695000
      Fe          0.00000000    0.00000000    3.61130000
      Fe          3.63905000    5.15405000    3.61130000
      Cl          1.67905767   10.30810000    5.41695000
      Cl          5.31810767    5.15405000    5.41695000
      Cl          5.59904233   10.30810000    5.41695000
      Cl          1.95999233    5.15405000    5.41695000
      Cl          0.00000000    2.50589911    3.61130000
      Cl          3.63905000    7.65994911    3.61130000
      Cl          0.00000000    7.80220089    3.61130000
      Cl          3.63905000    2.64815089    3.61130000
      Fe          9.09762500    2.57702500    1.80565000
      Li         12.73667500    2.57702500    1.80565000
      Li          9.09762500    7.73107500    1.80565000
      Fe          7.27810000    0.00000000    0.00000000
      Fe         10.91715000    5.15405000    0.00000000
      Cl          8.95715767    0.00000000    1.80565000
      Cl         12.59620767    5.15405000    1.80565000
      Cl         12.87714233    0.00000000    1.80565000
      Cl          9.23809233    5.15405000    1.80565000
      Cl          7.27810000    2.50589911    0.00000000
      Cl         10.91715000    7.65994911    0.00000000
      Cl          7.27810000    7.80220089    0.00000000
      Cl         10.91715000    2.64815089    0.00000000
      Li         12.73667500    7.73107500    5.41695000
      Li         12.73667500    2.57702500    5.41695000
      Li          9.09762500    7.73107500    5.41695000
      Fe          7.27810000    0.00000000    3.61130000
      Fe         10.91715000    5.15405000    3.61130000
      Cl          8.95715767   10.30810000    5.41695000
      Cl         12.59620767    5.15405000    5.41695000
      Cl         12.87714233   10.30810000    5.41695000
      Cl          9.23809233    5.15405000    5.41695000
      Cl          7.27810000    2.50589911    3.61130000
      Cl         10.91715000    7.65994911    3.61130000
      Cl          7.27810000    7.80220089    3.61130000
      Cl         10.91715000    2.64815089    3.61130000
      Fe          1.81952500    2.57702500    9.02825000
      Li          5.45857500    2.57702500    9.02825000
      Li          1.81952500    7.73107500    9.02825000
      Fe          0.00000000    0.00000000    7.22260000
      Fe          3.63905000    5.15405000    7.22260000
      Cl          1.67905767    0.00000000    9.02825000
      Cl          5.31810767    5.15405000    9.02825000
      Cl          5.59904233    0.00000000    9.02825000
      Cl          1.95999233    5.15405000    9.02825000
      Cl         14.55620000    2.50589911    7.22260000
      Cl          3.63905000    7.65994911    7.22260000
      Cl          0.00000000    7.80220089    7.22260000
      Cl          3.63905000    2.64815089    7.22260000
      Li          5.45857500    7.73107500   12.63955000
      Li          5.45857500    2.57702500   12.63955000
      Li          1.81952500    7.73107500   12.63955000
      Fe         14.55620000   10.30810000   10.83390000
      Fe          3.63905000    5.15405000   10.83390000
      Cl          1.67905767    0.00000000   12.63955000
      Cl          5.31810767    5.15405000   12.63955000
      Cl          5.59904233    0.00000000   12.63955000
      Cl          1.95999233    5.15405000   12.63955000
      Cl         14.55620000    2.50589911   10.83390000
      Cl          3.63905000    7.65994911   10.83390000
      Cl          0.00000000    7.80220089   10.83390000
      Cl          3.63905000    2.64815089   10.83390000
      Fe          9.09762500    2.57702500    9.02825000
      Li         12.73667500    2.57702500    9.02825000
      Li          9.09762500    7.73107500    9.02825000
      Fe          7.27810000    0.00000000    7.22260000
      Fe         10.91715000    5.15405000    7.22260000
      Cl          8.95715767    0.00000000    9.02825000
      Cl         12.59620767    5.15405000    9.02825000
      Cl         12.87714233    0.00000000    9.02825000
      Cl          9.23809233    5.15405000    9.02825000
      Cl          7.27810000    2.50589911    7.22260000
      Cl         10.91715000    7.65994911    7.22260000
      Cl          7.27810000    7.80220089    7.22260000
      Cl         10.91715000    2.64815089    7.22260000
      Li         12.73667500    7.73107500   12.63955000
      Li         12.73667500    2.57702500   12.63955000
      Li          9.09762500    7.73107500   12.63955000
      Fe          7.27810000   10.30810000   10.83390000
      Fe         10.91715000    5.15405000   10.83390000
      Cl          8.95715767    0.00000000   12.63955000
      Cl         12.59620767    5.15405000   12.63955000
      Cl         12.87714233    0.00000000   12.63955000
      Cl          9.23809233    5.15405000   12.63955000
      Cl          7.27810000    2.50589911   10.83390000
      Cl         10.91715000    7.65994911   10.83390000
      Cl          7.27810000    7.80220089   10.83390000
      Cl         10.91715000    2.64815089   10.83390000
    &END COORD
    &KIND Li
      ELEMENT Li
      BASIS_SET DZVP-MOLOPT-SR-GTH-q3
      POTENTIAL GTH-PBE
    &END KIND
    &KIND Cl
      ELEMENT Cl
      BASIS_SET DZVP-MOLOPT-SR-GTH-q7
      POTENTIAL GTH-PBE
    &END KIND
    &KIND Fe
      ELEMENT Fe
      BASIS_SET DZVP-MOLOPT-SR-GTH-q16
      POTENTIAL GTH-PBE
      MAGNETIZATION  5.00
    &END KIND
  &END SUBSYS

  &DFT
    BASIS_SET_FILE_NAME  BASIS_MOLOPT
    POTENTIAL_FILE_NAME  POTENTIAL
    WFN_RESTART_FILE_NAME opt_su-RESTART.wfn
    CHARGE    0 #Net charge
    MULTIPLICITY  101 #Spin multiplicity
    UKS
    &QS
      EPS_DEFAULT 1.0E-12 #Set all EPS_xxx to values such that the energy will be correct up to this value
    &END QS
    &POISSON
      PERIODIC XYZ #Direction(s) of PBC for calculating electrostatics
      PSOLVER PERIODIC #The way to solve Poisson equation
    &END POISSON
    &XC
      &XC_FUNCTIONAL PBE
      &END XC_FUNCTIONAL
    &END XC
    &MGRID
      CUTOFF  400
      REL_CUTOFF  55
    &END MGRID
    &SCF
      MAX_SCF 25 #Maximum number of steps of inner SCF
      EPS_SCF 1.0E-06 #Convergence threshold of density matrix of inner SCF
#     SCF_GUESS RESTART #Use wavefunction from WFN_RESTART_FILE_NAME file as initial guess
#     IGNORE_CONVERGENCE_FAILURE #Continue calculation even if SCF not converged, works for version >= 2024.1
      &OT
        PRECONDITIONER FULL_ALL #Usually best but expensive for large system. Cheaper: FULL_SINGLE_INVERSE and FULL_KINETIC
        MINIMIZER DIIS #CG is worth to consider in difficult cases
        LINESEARCH 2PNT #1D line search algorithm for CG. 2PNT is default. 3PNT is more expensive but may be better. GOLD is best but very expensive
        ALGORITHM IRAC #Algorithm of OT. Can be STRICT (default) or IRAC
      &END OT
      &OUTER_SCF
        MAX_SCF 20 #Maximum number of steps of outer SCF
        EPS_SCF 1.0E-06 #Convergence threshold of outer SCF
      &END OUTER_SCF
      &PRINT
        &RESTART #Note: Use "&RESTART OFF" can prevent generating .wfn file
          BACKUP_COPIES 0 #Maximum number of backup copies of wfn file. 0 means never
        &END RESTART
      &END PRINT
    &END SCF
  &END DFT
  &PRINT
    &STRESS_TENSOR ON #Print stress tensor
    &END STRESS_TENSOR
  &END PRINT
  STRESS_TENSOR ANALYTICAL #Compute full stress tensor analytically
&END FORCE_EVAL

&MOTION
  &CELL_OPT
    MAX_ITER 400 #Maximum number of geometry optimization
    EXTERNAL_PRESSURE  1.01325E+00 #External pressure for cell optimization (bar)
    CONSTRAINT NONE #Constraint of cell length, can be: NONE, X, Y, Z, XY, XZ, YZ
    KEEP_ANGLES T #If T, then cell angles will be kepted
    KEEP_SYMMETRY F #If T, then cell symmetry specified by &CELL / SYMMETRY will be kepted
    KEEP_SPACE_GROUP F #If T, then space group will be detected and preserved
    TYPE DIRECT_CELL_OPT #Geometry and cell are optimized at the same time. Can also be GEO_OPT, MD
    #The following thresholds of optimization convergence are the default ones
    MAX_DR 3E-3 #Maximum geometry change
    RMS_DR 1.5E-3 #RMS geometry change
    MAX_FORCE 4.5E-4 #Maximum force
    RMS_FORCE 3E-4 #RMS force
    PRESSURE_TOLERANCE 100 #Pressure tolerance (w.r.t EXTERNAL_PRESSURE)
    OPTIMIZER BFGS #Can also be CG (more robust for difficult cases) or LBFGS
    &BFGS
      TRUST_RADIUS 0.2 #Trust radius (maximum stepsize) in Angstrom
#     RESTART_HESSIAN T #If read initial Hessian, uncomment this line and specify the file in the next line
#     RESTART_FILE_NAME to_be_specified
    &END BFGS
  &END CELL_OPT
  &PRINT
    &TRAJECTORY
      FORMAT pdb
    &END TRAJECTORY
    &RESTART
      BACKUP_COPIES 0 #Maximum number of backing up restart file, 0 means never
    &END RESTART
    &RESTART_HISTORY OFF 
    &END RESTART_HISTORY
  &END PRINT
&END MOTION
